data/lp_files/pEFS/142_5.lp
\ Model foo
\ LP format - for model browsing. Use MPS format to capture full model detail.
Minimize
  z
Subject To
 allocateEach[1]: x[1,1] + x[2,1] + x[3,1] + x[4,1] + x[5,1] + x[6,1]
   + x[7,1] + x[8,1] = 1
 allocateEach[2]: x[1,2] + x[2,2] + x[3,2] + x[4,2] + x[5,2] + x[6,2]
   + x[7,2] + x[8,2] = 1
 allocateAllCash: cashProportion[1] + cashProportion[2] + cashProportion[3]
   + cashProportion[4] + cashProportion[5] + cashProportion[6]
   + cashProportion[7] + cashProportion[8] = 1
 findWorstP[1,2]: z + 0.1683501683501683 cashProportion[1]
   - 0.1683501683501683 cashProportion[2] + 0.5212121212121212 x[1,1]
   + 0.3104377104377105 x[1,2] - 0.5212121212121212 x[2,1]
   - 0.3104377104377105 x[2,2] >= 0
 findWorstP[1,3]: z + 0.1683501683501683 cashProportion[1]
   - 0.1683501683501683 cashProportion[3] + 0.5212121212121212 x[1,1]
   + 0.3104377104377105 x[1,2] - 0.5212121212121212 x[3,1]
   - 0.3104377104377105 x[3,2] >= 0
 findWorstP[1,4]: z + 0.1683501683501683 cashProportion[1]
   - 0.1683501683501683 cashProportion[4] + 0.5212121212121212 x[1,1]
   + 0.3104377104377105 x[1,2] - 0.5212121212121212 x[4,1]
   - 0.3104377104377105 x[4,2] >= 0
 findWorstP[1,5]: z + 0.1683501683501683 cashProportion[1]
   - 0.1683501683501683 cashProportion[5] + 0.5212121212121212 x[1,1]
   + 0.3104377104377105 x[1,2] - 0.5212121212121212 x[5,1]
   - 0.3104377104377105 x[5,2] >= 0
 findWorstP[1,6]: z + 0.1683501683501683 cashProportion[1]
   - 0.1683501683501683 cashProportion[6] + 0.5212121212121212 x[1,1]
   + 0.3104377104377105 x[1,2] - 0.5212121212121212 x[6,1]
   - 0.3104377104377105 x[6,2] >= 0
 findWorstP[1,7]: z + 0.1683501683501683 cashProportion[1]
   - 0.1683501683501683 cashProportion[7] + 0.5212121212121212 x[1,1]
   + 0.3104377104377105 x[1,2] - 0.5212121212121212 x[7,1]
   - 0.3104377104377105 x[7,2] >= 0
 findWorstP[1,8]: z + 0.1683501683501683 cashProportion[1]
   - 0.1683501683501683 cashProportion[8] + 0.5212121212121212 x[1,1]
   + 0.3104377104377105 x[1,2] - 0.5212121212121212 x[8,1]
   - 0.3104377104377105 x[8,2] >= 0
 findWorstP[2,1]: z - 0.2466496752445943 cashProportion[1]
   + 0.2466496752445943 cashProportion[2] - 0.4409274027789197 x[1,1]
   - 0.3124229219764861 x[1,2] + 0.4409274027789197 x[2,1]
   + 0.3124229219764861 x[2,2] >= 0
 findWorstP[2,3]: z + 0.2466496752445943 cashProportion[2]
   - 0.2466496752445943 cashProportion[3] + 0.4409274027789197 x[2,1]
   + 0.3124229219764861 x[2,2] - 0.4409274027789197 x[3,1]
   - 0.3124229219764861 x[3,2] >= 0
 findWorstP[2,4]: z + 0.2466496752445943 cashProportion[2]
   - 0.2466496752445943 cashProportion[4] + 0.4409274027789197 x[2,1]
   + 0.3124229219764861 x[2,2] - 0.4409274027789197 x[4,1]
   - 0.3124229219764861 x[4,2] >= 0
 findWorstP[2,5]: z + 0.2466496752445943 cashProportion[2]
   - 0.2466496752445943 cashProportion[5] + 0.4409274027789197 x[2,1]
   + 0.3124229219764861 x[2,2] - 0.4409274027789197 x[5,1]
   - 0.3124229219764861 x[5,2] >= 0
 findWorstP[2,6]: z + 0.2466496752445943 cashProportion[2]
   - 0.2466496752445943 cashProportion[6] + 0.4409274027789197 x[2,1]
   + 0.3124229219764861 x[2,2] - 0.4409274027789197 x[6,1]
   - 0.3124229219764861 x[6,2] >= 0
 findWorstP[2,7]: z + 0.2466496752445943 cashProportion[2]
   - 0.2466496752445943 cashProportion[7] + 0.4409274027789197 x[2,1]
   + 0.3124229219764861 x[2,2] - 0.4409274027789197 x[7,1]
   - 0.3124229219764861 x[7,2] >= 0
 findWorstP[2,8]: z + 0.2466496752445943 cashProportion[2]
   - 0.2466496752445943 cashProportion[8] + 0.4409274027789197 x[2,1]
   + 0.3124229219764861 x[2,2] - 0.4409274027789197 x[8,1]
   - 0.3124229219764861 x[8,2] >= 0
 findWorstP[3,1]: z - 0.2159671729897056 cashProportion[1]
   + 0.2159671729897056 cashProportion[3] - 0.3969476639550789 x[1,1]
   - 0.3870851630552156 x[1,2] + 0.3969476639550789 x[3,1]
   + 0.3870851630552156 x[3,2] >= 0
 findWorstP[3,2]: z - 0.2159671729897056 cashProportion[2]
   + 0.2159671729897056 cashProportion[3] - 0.3969476639550789 x[2,1]
   - 0.3870851630552156 x[2,2] + 0.3969476639550789 x[3,1]
   + 0.3870851630552156 x[3,2] >= 0
 findWorstP[3,4]: z + 0.2159671729897056 cashProportion[3]
   - 0.2159671729897056 cashProportion[4] + 0.3969476639550789 x[3,1]
   + 0.3870851630552156 x[3,2] - 0.3969476639550789 x[4,1]
   - 0.3870851630552156 x[4,2] >= 0
 findWorstP[3,5]: z + 0.2159671729897056 cashProportion[3]
   - 0.2159671729897056 cashProportion[5] + 0.3969476639550789 x[3,1]
   + 0.3870851630552156 x[3,2] - 0.3969476639550789 x[5,1]
   - 0.3870851630552156 x[5,2] >= 0
 findWorstP[3,6]: z + 0.2159671729897056 cashProportion[3]
   - 0.2159671729897056 cashProportion[6] + 0.3969476639550789 x[3,1]
   + 0.3870851630552156 x[3,2] - 0.3969476639550789 x[6,1]
   - 0.3870851630552156 x[6,2] >= 0
 findWorstP[3,7]: z + 0.2159671729897056 cashProportion[3]
   - 0.2159671729897056 cashProportion[7] + 0.3969476639550789 x[3,1]
   + 0.3870851630552156 x[3,2] - 0.3969476639550789 x[7,1]
   - 0.3870851630552156 x[7,2] >= 0
 findWorstP[3,8]: z + 0.2159671729897056 cashProportion[3]
   - 0.2159671729897056 cashProportion[8] + 0.3969476639550789 x[3,1]
   + 0.3870851630552156 x[3,2] - 0.3969476639550789 x[8,1]
   - 0.3870851630552156 x[8,2] >= 0
 findWorstP[4,1]: z - 0.3069367710251688 cashProportion[1]
   + 0.3069367710251688 cashProportion[4] - 0.1425209740126867 x[1,1]
   - 0.5505422549621445 x[1,2] + 0.1425209740126867 x[4,1]
   + 0.5505422549621445 x[4,2] >= 0
 findWorstP[4,2]: z - 0.3069367710251688 cashProportion[2]
   + 0.3069367710251688 cashProportion[4] - 0.1425209740126867 x[2,1]
   - 0.5505422549621445 x[2,2] + 0.1425209740126867 x[4,1]
   + 0.5505422549621445 x[4,2] >= 0
 findWorstP[4,3]: z - 0.3069367710251688 cashProportion[3]
   + 0.3069367710251688 cashProportion[4] - 0.1425209740126867 x[3,1]
   - 0.5505422549621445 x[3,2] + 0.1425209740126867 x[4,1]
   + 0.5505422549621445 x[4,2] >= 0
 findWorstP[4,5]: z + 0.3069367710251688 cashProportion[4]
   - 0.3069367710251688 cashProportion[5] + 0.1425209740126867 x[4,1]
   + 0.5505422549621445 x[4,2] - 0.1425209740126867 x[5,1]
   - 0.5505422549621445 x[5,2] >= 0
 findWorstP[4,6]: z + 0.3069367710251688 cashProportion[4]
   - 0.3069367710251688 cashProportion[6] + 0.1425209740126867 x[4,1]
   + 0.5505422549621445 x[4,2] - 0.1425209740126867 x[6,1]
   - 0.5505422549621445 x[6,2] >= 0
 findWorstP[4,7]: z + 0.3069367710251688 cashProportion[4]
   - 0.3069367710251688 cashProportion[7] + 0.1425209740126867 x[4,1]
   + 0.5505422549621445 x[4,2] - 0.1425209740126867 x[7,1]
   - 0.5505422549621445 x[7,2] >= 0
 findWorstP[4,8]: z + 0.3069367710251688 cashProportion[4]
   - 0.3069367710251688 cashProportion[8] + 0.1425209740126867 x[4,1]
   + 0.5505422549621445 x[4,2] - 0.1425209740126867 x[8,1]
   - 0.5505422549621445 x[8,2] >= 0
 findWorstP[5,1]: z - 0.2919992213354097 cashProportion[1]
   + 0.2919992213354097 cashProportion[5] - 0.2125754331321783 x[1,1]
   - 0.4954253455324119 x[1,2] + 0.2125754331321783 x[5,1]
   + 0.4954253455324119 x[5,2] >= 0
 findWorstP[5,2]: z - 0.2919992213354097 cashProportion[2]
   + 0.2919992213354097 cashProportion[5] - 0.2125754331321783 x[2,1]
   - 0.4954253455324119 x[2,2] + 0.2125754331321783 x[5,1]
   + 0.4954253455324119 x[5,2] >= 0
 findWorstP[5,3]: z - 0.2919992213354097 cashProportion[3]
   + 0.2919992213354097 cashProportion[5] - 0.2125754331321783 x[3,1]
   - 0.4954253455324119 x[3,2] + 0.2125754331321783 x[5,1]
   + 0.4954253455324119 x[5,2] >= 0
 findWorstP[5,4]: z - 0.2919992213354097 cashProportion[4]
   + 0.2919992213354097 cashProportion[5] - 0.2125754331321783 x[4,1]
   - 0.4954253455324119 x[4,2] + 0.2125754331321783 x[5,1]
   + 0.4954253455324119 x[5,2] >= 0
 findWorstP[5,6]: z + 0.2919992213354097 cashProportion[5]
   - 0.2919992213354097 cashProportion[6] + 0.2125754331321783 x[5,1]
   + 0.4954253455324119 x[5,2] - 0.2125754331321783 x[6,1]
   - 0.4954253455324119 x[6,2] >= 0
 findWorstP[5,7]: z + 0.2919992213354097 cashProportion[5]
   - 0.2919992213354097 cashProportion[7] + 0.2125754331321783 x[5,1]
   + 0.4954253455324119 x[5,2] - 0.2125754331321783 x[7,1]
   - 0.4954253455324119 x[7,2] >= 0
 findWorstP[5,8]: z + 0.2919992213354097 cashProportion[5]
   - 0.2919992213354097 cashProportion[8] + 0.2125754331321783 x[5,1]
   + 0.4954253455324119 x[5,2] - 0.2125754331321783 x[8,1]
   - 0.4954253455324119 x[8,2] >= 0
 findWorstP[6,1]: z - 0.2010319640822891 cashProportion[1]
   + 0.2010319640822891 cashProportion[6] - 0.3549554379146284 x[1,1]
   - 0.4440125980030825 x[1,2] + 0.3549554379146284 x[6,1]
   + 0.4440125980030825 x[6,2] >= 0
 findWorstP[6,2]: z - 0.2010319640822891 cashProportion[2]
   + 0.2010319640822891 cashProportion[6] - 0.3549554379146284 x[2,1]
   - 0.4440125980030825 x[2,2] + 0.3549554379146284 x[6,1]
   + 0.4440125980030825 x[6,2] >= 0
 findWorstP[6,3]: z - 0.2010319640822891 cashProportion[3]
   + 0.2010319640822891 cashProportion[6] - 0.3549554379146284 x[3,1]
   - 0.4440125980030825 x[3,2] + 0.3549554379146284 x[6,1]
   + 0.4440125980030825 x[6,2] >= 0
 findWorstP[6,4]: z - 0.2010319640822891 cashProportion[4]
   + 0.2010319640822891 cashProportion[6] - 0.3549554379146284 x[4,1]
   - 0.4440125980030825 x[4,2] + 0.3549554379146284 x[6,1]
   + 0.4440125980030825 x[6,2] >= 0
 findWorstP[6,5]: z - 0.2010319640822891 cashProportion[5]
   + 0.2010319640822891 cashProportion[6] - 0.3549554379146284 x[5,1]
   - 0.4440125980030825 x[5,2] + 0.3549554379146284 x[6,1]
   + 0.4440125980030825 x[6,2] >= 0
 findWorstP[6,7]: z + 0.2010319640822891 cashProportion[6]
   - 0.2010319640822891 cashProportion[7] + 0.3549554379146284 x[6,1]
   + 0.4440125980030825 x[6,2] - 0.3549554379146284 x[7,1]
   - 0.4440125980030825 x[7,2] >= 0
 findWorstP[6,8]: z + 0.2010319640822891 cashProportion[6]
   - 0.2010319640822891 cashProportion[8] + 0.3549554379146284 x[6,1]
   + 0.4440125980030825 x[6,2] - 0.3549554379146284 x[8,1]
   - 0.4440125980030825 x[8,2] >= 0
 findWorstP[7,1]: z - 0.2167943344413932 cashProportion[1]
   + 0.2167943344413932 cashProportion[7] - 0.5598352363058245 x[1,1]
   - 0.2233704292527822 x[1,2] + 0.5598352363058245 x[7,1]
   + 0.2233704292527822 x[7,2] >= 0
 findWorstP[7,2]: z - 0.2167943344413932 cashProportion[2]
   + 0.2167943344413932 cashProportion[7] - 0.5598352363058245 x[2,1]
   - 0.2233704292527822 x[2,2] + 0.5598352363058245 x[7,1]
   + 0.2233704292527822 x[7,2] >= 0
 findWorstP[7,3]: z - 0.2167943344413932 cashProportion[3]
   + 0.2167943344413932 cashProportion[7] - 0.5598352363058245 x[3,1]
   - 0.2233704292527822 x[3,2] + 0.5598352363058245 x[7,1]
   + 0.2233704292527822 x[7,2] >= 0
 findWorstP[7,4]: z - 0.2167943344413932 cashProportion[4]
   + 0.2167943344413932 cashProportion[7] - 0.5598352363058245 x[4,1]
   - 0.2233704292527822 x[4,2] + 0.5598352363058245 x[7,1]
   + 0.2233704292527822 x[7,2] >= 0
 findWorstP[7,5]: z - 0.2167943344413932 cashProportion[5]
   + 0.2167943344413932 cashProportion[7] - 0.5598352363058245 x[5,1]
   - 0.2233704292527822 x[5,2] + 0.5598352363058245 x[7,1]
   + 0.2233704292527822 x[7,2] >= 0
 findWorstP[7,6]: z - 0.2167943344413932 cashProportion[6]
   + 0.2167943344413932 cashProportion[7] - 0.5598352363058245 x[6,1]
   - 0.2233704292527822 x[6,2] + 0.5598352363058245 x[7,1]
   + 0.2233704292527822 x[7,2] >= 0
 findWorstP[7,8]: z + 0.2167943344413932 cashProportion[7]
   - 0.2167943344413932 cashProportion[8] + 0.5598352363058245 x[7,1]
   + 0.2233704292527822 x[7,2] - 0.5598352363058245 x[8,1]
   - 0.2233704292527822 x[8,2] >= 0
 findWorstP[8,1]: z - 0.3145313482910463 cashProportion[1]
   + 0.3145313482910463 cashProportion[8] - 0.0591318934787167 x[1,1]
   - 0.626336758230237 x[1,2] + 0.0591318934787167 x[8,1]
   + 0.626336758230237 x[8,2] >= 0
 findWorstP[8,2]: z - 0.3145313482910463 cashProportion[2]
   + 0.3145313482910463 cashProportion[8] - 0.0591318934787167 x[2,1]
   - 0.626336758230237 x[2,2] + 0.0591318934787167 x[8,1]
   + 0.626336758230237 x[8,2] >= 0
 findWorstP[8,3]: z - 0.3145313482910463 cashProportion[3]
   + 0.3145313482910463 cashProportion[8] - 0.0591318934787167 x[3,1]
   - 0.626336758230237 x[3,2] + 0.0591318934787167 x[8,1]
   + 0.626336758230237 x[8,2] >= 0
 findWorstP[8,4]: z - 0.3145313482910463 cashProportion[4]
   + 0.3145313482910463 cashProportion[8] - 0.0591318934787167 x[4,1]
   - 0.626336758230237 x[4,2] + 0.0591318934787167 x[8,1]
   + 0.626336758230237 x[8,2] >= 0
 findWorstP[8,5]: z - 0.3145313482910463 cashProportion[5]
   + 0.3145313482910463 cashProportion[8] - 0.0591318934787167 x[5,1]
   - 0.626336758230237 x[5,2] + 0.0591318934787167 x[8,1]
   + 0.626336758230237 x[8,2] >= 0
 findWorstP[8,6]: z - 0.3145313482910463 cashProportion[6]
   + 0.3145313482910463 cashProportion[8] - 0.0591318934787167 x[6,1]
   - 0.626336758230237 x[6,2] + 0.0591318934787167 x[8,1]
   + 0.626336758230237 x[8,2] >= 0
 findWorstP[8,7]: z - 0.3145313482910463 cashProportion[7]
   + 0.3145313482910463 cashProportion[8] - 0.0591318934787167 x[7,1]
   - 0.626336758230237 x[7,2] + 0.0591318934787167 x[8,1]
   + 0.626336758230237 x[8,2] >= 0
Bounds
 z <= 1
 -infinity <= cashProportion[1] <= 1
 -infinity <= cashProportion[2] <= 1
 -infinity <= cashProportion[3] <= 1
 -infinity <= cashProportion[4] <= 1
 -infinity <= cashProportion[5] <= 1
 -infinity <= cashProportion[6] <= 1
 -infinity <= cashProportion[7] <= 1
 -infinity <= cashProportion[8] <= 1
Binaries
 x[1,1] x[1,2] x[2,1] x[2,2] x[3,1] x[3,2] x[4,1] x[4,2] x[5,1] x[5,2]
 x[6,1] x[6,2] x[7,1] x[7,2] x[8,1] x[8,2]
End
