data/mps_files/pEFS/142_5.mps
NAME foo
ROWS
 N  OBJ
 E  allocateEach[1]
 E  allocateEach[2]
 E  allocateAllCash
 G  findWorstP[1,2]
 G  findWorstP[1,3]
 G  findWorstP[1,4]
 G  findWorstP[1,5]
 G  findWorstP[1,6]
 G  findWorstP[1,7]
 G  findWorstP[1,8]
 G  findWorstP[2,1]
 G  findWorstP[2,3]
 G  findWorstP[2,4]
 G  findWorstP[2,5]
 G  findWorstP[2,6]
 G  findWorstP[2,7]
 G  findWorstP[2,8]
 G  findWorstP[3,1]
 G  findWorstP[3,2]
 G  findWorstP[3,4]
 G  findWorstP[3,5]
 G  findWorstP[3,6]
 G  findWorstP[3,7]
 G  findWorstP[3,8]
 G  findWorstP[4,1]
 G  findWorstP[4,2]
 G  findWorstP[4,3]
 G  findWorstP[4,5]
 G  findWorstP[4,6]
 G  findWorstP[4,7]
 G  findWorstP[4,8]
 G  findWorstP[5,1]
 G  findWorstP[5,2]
 G  findWorstP[5,3]
 G  findWorstP[5,4]
 G  findWorstP[5,6]
 G  findWorstP[5,7]
 G  findWorstP[5,8]
 G  findWorstP[6,1]
 G  findWorstP[6,2]
 G  findWorstP[6,3]
 G  findWorstP[6,4]
 G  findWorstP[6,5]
 G  findWorstP[6,7]
 G  findWorstP[6,8]
 G  findWorstP[7,1]
 G  findWorstP[7,2]
 G  findWorstP[7,3]
 G  findWorstP[7,4]
 G  findWorstP[7,5]
 G  findWorstP[7,6]
 G  findWorstP[7,8]
 G  findWorstP[8,1]
 G  findWorstP[8,2]
 G  findWorstP[8,3]
 G  findWorstP[8,4]
 G  findWorstP[8,5]
 G  findWorstP[8,6]
 G  findWorstP[8,7]
COLUMNS
    z         OBJ       1
    z         findWorstP[1,2]  1
    z         findWorstP[1,3]  1
    z         findWorstP[1,4]  1
    z         findWorstP[1,5]  1
    z         findWorstP[1,6]  1
    z         findWorstP[1,7]  1
    z         findWorstP[1,8]  1
    z         findWorstP[2,1]  1
    z         findWorstP[2,3]  1
    z         findWorstP[2,4]  1
    z         findWorstP[2,5]  1
    z         findWorstP[2,6]  1
    z         findWorstP[2,7]  1
    z         findWorstP[2,8]  1
    z         findWorstP[3,1]  1
    z         findWorstP[3,2]  1
    z         findWorstP[3,4]  1
    z         findWorstP[3,5]  1
    z         findWorstP[3,6]  1
    z         findWorstP[3,7]  1
    z         findWorstP[3,8]  1
    z         findWorstP[4,1]  1
    z         findWorstP[4,2]  1
    z         findWorstP[4,3]  1
    z         findWorstP[4,5]  1
    z         findWorstP[4,6]  1
    z         findWorstP[4,7]  1
    z         findWorstP[4,8]  1
    z         findWorstP[5,1]  1
    z         findWorstP[5,2]  1
    z         findWorstP[5,3]  1
    z         findWorstP[5,4]  1
    z         findWorstP[5,6]  1
    z         findWorstP[5,7]  1
    z         findWorstP[5,8]  1
    z         findWorstP[6,1]  1
    z         findWorstP[6,2]  1
    z         findWorstP[6,3]  1
    z         findWorstP[6,4]  1
    z         findWorstP[6,5]  1
    z         findWorstP[6,7]  1
    z         findWorstP[6,8]  1
    z         findWorstP[7,1]  1
    z         findWorstP[7,2]  1
    z         findWorstP[7,3]  1
    z         findWorstP[7,4]  1
    z         findWorstP[7,5]  1
    z         findWorstP[7,6]  1
    z         findWorstP[7,8]  1
    z         findWorstP[8,1]  1
    z         findWorstP[8,2]  1
    z         findWorstP[8,3]  1
    z         findWorstP[8,4]  1
    z         findWorstP[8,5]  1
    z         findWorstP[8,6]  1
    z         findWorstP[8,7]  1
    cashProportion[1]  allocateAllCash  1
    cashProportion[1]  findWorstP[1,2]  1.6835016835016833e-01
    cashProportion[1]  findWorstP[1,3]  1.6835016835016833e-01
    cashProportion[1]  findWorstP[1,4]  1.6835016835016833e-01
    cashProportion[1]  findWorstP[1,5]  1.6835016835016833e-01
    cashProportion[1]  findWorstP[1,6]  1.6835016835016833e-01
    cashProportion[1]  findWorstP[1,7]  1.6835016835016833e-01
    cashProportion[1]  findWorstP[1,8]  1.6835016835016833e-01
    cashProportion[1]  findWorstP[2,1]  -2.4664967524459427e-01
    cashProportion[1]  findWorstP[3,1]  -2.1596717298970555e-01
    cashProportion[1]  findWorstP[4,1]  -3.0693677102516875e-01
    cashProportion[1]  findWorstP[5,1]  -2.9199922133540973e-01
    cashProportion[1]  findWorstP[6,1]  -2.0103196408228907e-01
    cashProportion[1]  findWorstP[7,1]  -2.1679433444139323e-01
    cashProportion[1]  findWorstP[8,1]  -3.1453134829104634e-01
    cashProportion[2]  allocateAllCash  1
    cashProportion[2]  findWorstP[1,2]  -1.6835016835016833e-01
    cashProportion[2]  findWorstP[2,1]  2.4664967524459427e-01
    cashProportion[2]  findWorstP[2,3]  2.4664967524459427e-01
    cashProportion[2]  findWorstP[2,4]  2.4664967524459427e-01
    cashProportion[2]  findWorstP[2,5]  2.4664967524459427e-01
    cashProportion[2]  findWorstP[2,6]  2.4664967524459427e-01
    cashProportion[2]  findWorstP[2,7]  2.4664967524459427e-01
    cashProportion[2]  findWorstP[2,8]  2.4664967524459427e-01
    cashProportion[2]  findWorstP[3,2]  -2.1596717298970555e-01
    cashProportion[2]  findWorstP[4,2]  -3.0693677102516875e-01
    cashProportion[2]  findWorstP[5,2]  -2.9199922133540973e-01
    cashProportion[2]  findWorstP[6,2]  -2.0103196408228907e-01
    cashProportion[2]  findWorstP[7,2]  -2.1679433444139323e-01
    cashProportion[2]  findWorstP[8,2]  -3.1453134829104634e-01
    cashProportion[3]  allocateAllCash  1
    cashProportion[3]  findWorstP[1,3]  -1.6835016835016833e-01
    cashProportion[3]  findWorstP[2,3]  -2.4664967524459427e-01
    cashProportion[3]  findWorstP[3,1]  2.1596717298970555e-01
    cashProportion[3]  findWorstP[3,2]  2.1596717298970555e-01
    cashProportion[3]  findWorstP[3,4]  2.1596717298970555e-01
    cashProportion[3]  findWorstP[3,5]  2.1596717298970555e-01
    cashProportion[3]  findWorstP[3,6]  2.1596717298970555e-01
    cashProportion[3]  findWorstP[3,7]  2.1596717298970555e-01
    cashProportion[3]  findWorstP[3,8]  2.1596717298970555e-01
    cashProportion[3]  findWorstP[4,3]  -3.0693677102516875e-01
    cashProportion[3]  findWorstP[5,3]  -2.9199922133540973e-01
    cashProportion[3]  findWorstP[6,3]  -2.0103196408228907e-01
    cashProportion[3]  findWorstP[7,3]  -2.1679433444139323e-01
    cashProportion[3]  findWorstP[8,3]  -3.1453134829104634e-01
    cashProportion[4]  allocateAllCash  1
    cashProportion[4]  findWorstP[1,4]  -1.6835016835016833e-01
    cashProportion[4]  findWorstP[2,4]  -2.4664967524459427e-01
    cashProportion[4]  findWorstP[3,4]  -2.1596717298970555e-01
    cashProportion[4]  findWorstP[4,1]  3.0693677102516875e-01
    cashProportion[4]  findWorstP[4,2]  3.0693677102516875e-01
    cashProportion[4]  findWorstP[4,3]  3.0693677102516875e-01
    cashProportion[4]  findWorstP[4,5]  3.0693677102516875e-01
    cashProportion[4]  findWorstP[4,6]  3.0693677102516875e-01
    cashProportion[4]  findWorstP[4,7]  3.0693677102516875e-01
    cashProportion[4]  findWorstP[4,8]  3.0693677102516875e-01
    cashProportion[4]  findWorstP[5,4]  -2.9199922133540973e-01
    cashProportion[4]  findWorstP[6,4]  -2.0103196408228907e-01
    cashProportion[4]  findWorstP[7,4]  -2.1679433444139323e-01
    cashProportion[4]  findWorstP[8,4]  -3.1453134829104634e-01
    cashProportion[5]  allocateAllCash  1
    cashProportion[5]  findWorstP[1,5]  -1.6835016835016833e-01
    cashProportion[5]  findWorstP[2,5]  -2.4664967524459427e-01
    cashProportion[5]  findWorstP[3,5]  -2.1596717298970555e-01
    cashProportion[5]  findWorstP[4,5]  -3.0693677102516875e-01
    cashProportion[5]  findWorstP[5,1]  2.9199922133540973e-01
    cashProportion[5]  findWorstP[5,2]  2.9199922133540973e-01
    cashProportion[5]  findWorstP[5,3]  2.9199922133540973e-01
    cashProportion[5]  findWorstP[5,4]  2.9199922133540973e-01
    cashProportion[5]  findWorstP[5,6]  2.9199922133540973e-01
    cashProportion[5]  findWorstP[5,7]  2.9199922133540973e-01
    cashProportion[5]  findWorstP[5,8]  2.9199922133540973e-01
    cashProportion[5]  findWorstP[6,5]  -2.0103196408228907e-01
    cashProportion[5]  findWorstP[7,5]  -2.1679433444139323e-01
    cashProportion[5]  findWorstP[8,5]  -3.1453134829104634e-01
    cashProportion[6]  allocateAllCash  1
    cashProportion[6]  findWorstP[1,6]  -1.6835016835016833e-01
    cashProportion[6]  findWorstP[2,6]  -2.4664967524459427e-01
    cashProportion[6]  findWorstP[3,6]  -2.1596717298970555e-01
    cashProportion[6]  findWorstP[4,6]  -3.0693677102516875e-01
    cashProportion[6]  findWorstP[5,6]  -2.9199922133540973e-01
    cashProportion[6]  findWorstP[6,1]  2.0103196408228907e-01
    cashProportion[6]  findWorstP[6,2]  2.0103196408228907e-01
    cashProportion[6]  findWorstP[6,3]  2.0103196408228907e-01
    cashProportion[6]  findWorstP[6,4]  2.0103196408228907e-01
    cashProportion[6]  findWorstP[6,5]  2.0103196408228907e-01
    cashProportion[6]  findWorstP[6,7]  2.0103196408228907e-01
    cashProportion[6]  findWorstP[6,8]  2.0103196408228907e-01
    cashProportion[6]  findWorstP[7,6]  -2.1679433444139323e-01
    cashProportion[6]  findWorstP[8,6]  -3.1453134829104634e-01
    cashProportion[7]  allocateAllCash  1
    cashProportion[7]  findWorstP[1,7]  -1.6835016835016833e-01
    cashProportion[7]  findWorstP[2,7]  -2.4664967524459427e-01
    cashProportion[7]  findWorstP[3,7]  -2.1596717298970555e-01
    cashProportion[7]  findWorstP[4,7]  -3.0693677102516875e-01
    cashProportion[7]  findWorstP[5,7]  -2.9199922133540973e-01
    cashProportion[7]  findWorstP[6,7]  -2.0103196408228907e-01
    cashProportion[7]  findWorstP[7,1]  2.1679433444139323e-01
    cashProportion[7]  findWorstP[7,2]  2.1679433444139323e-01
    cashProportion[7]  findWorstP[7,3]  2.1679433444139323e-01
    cashProportion[7]  findWorstP[7,4]  2.1679433444139323e-01
    cashProportion[7]  findWorstP[7,5]  2.1679433444139323e-01
    cashProportion[7]  findWorstP[7,6]  2.1679433444139323e-01
    cashProportion[7]  findWorstP[7,8]  2.1679433444139323e-01
    cashProportion[7]  findWorstP[8,7]  -3.1453134829104634e-01
    cashProportion[8]  allocateAllCash  1
    cashProportion[8]  findWorstP[1,8]  -1.6835016835016833e-01
    cashProportion[8]  findWorstP[2,8]  -2.4664967524459427e-01
    cashProportion[8]  findWorstP[3,8]  -2.1596717298970555e-01
    cashProportion[8]  findWorstP[4,8]  -3.0693677102516875e-01
    cashProportion[8]  findWorstP[5,8]  -2.9199922133540973e-01
    cashProportion[8]  findWorstP[6,8]  -2.0103196408228907e-01
    cashProportion[8]  findWorstP[7,8]  -2.1679433444139323e-01
    cashProportion[8]  findWorstP[8,1]  3.1453134829104634e-01
    cashProportion[8]  findWorstP[8,2]  3.1453134829104634e-01
    cashProportion[8]  findWorstP[8,3]  3.1453134829104634e-01
    cashProportion[8]  findWorstP[8,4]  3.1453134829104634e-01
    cashProportion[8]  findWorstP[8,5]  3.1453134829104634e-01
    cashProportion[8]  findWorstP[8,6]  3.1453134829104634e-01
    cashProportion[8]  findWorstP[8,7]  3.1453134829104634e-01
    MARKER    'MARKER'                 'INTORG'
    x[1,1]    allocateEach[1]  1
    x[1,1]    findWorstP[1,2]  5.2121212121212124e-01
    x[1,1]    findWorstP[1,3]  5.2121212121212124e-01
    x[1,1]    findWorstP[1,4]  5.2121212121212124e-01
    x[1,1]    findWorstP[1,5]  5.2121212121212124e-01
    x[1,1]    findWorstP[1,6]  5.2121212121212124e-01
    x[1,1]    findWorstP[1,7]  5.2121212121212124e-01
    x[1,1]    findWorstP[1,8]  5.2121212121212124e-01
    x[1,1]    findWorstP[2,1]  -4.4092740277891973e-01
    x[1,1]    findWorstP[3,1]  -3.9694766395507886e-01
    x[1,1]    findWorstP[4,1]  -1.4252097401268671e-01
    x[1,1]    findWorstP[5,1]  -2.1257543313217830e-01
    x[1,1]    findWorstP[6,1]  -3.5495543791462841e-01
    x[1,1]    findWorstP[7,1]  -5.5983523630582455e-01
    x[1,1]    findWorstP[8,1]  -5.9131893478716710e-02
    x[1,2]    allocateEach[2]  1
    x[1,2]    findWorstP[1,2]  3.1043771043771046e-01
    x[1,2]    findWorstP[1,3]  3.1043771043771046e-01
    x[1,2]    findWorstP[1,4]  3.1043771043771046e-01
    x[1,2]    findWorstP[1,5]  3.1043771043771046e-01
    x[1,2]    findWorstP[1,6]  3.1043771043771046e-01
    x[1,2]    findWorstP[1,7]  3.1043771043771046e-01
    x[1,2]    findWorstP[1,8]  3.1043771043771046e-01
    x[1,2]    findWorstP[2,1]  -3.1242292197648608e-01
    x[1,2]    findWorstP[3,1]  -3.8708516305521556e-01
    x[1,2]    findWorstP[4,1]  -5.5054225496214448e-01
    x[1,2]    findWorstP[5,1]  -4.9542534553241185e-01
    x[1,2]    findWorstP[6,1]  -4.4401259800308246e-01
    x[1,2]    findWorstP[7,1]  -2.2337042925278217e-01
    x[1,2]    findWorstP[8,1]  -0.626336758230237
    x[2,1]    allocateEach[1]  1
    x[2,1]    findWorstP[1,2]  -5.2121212121212124e-01
    x[2,1]    findWorstP[2,1]  4.4092740277891973e-01
    x[2,1]    findWorstP[2,3]  4.4092740277891973e-01
    x[2,1]    findWorstP[2,4]  4.4092740277891973e-01
    x[2,1]    findWorstP[2,5]  4.4092740277891973e-01
    x[2,1]    findWorstP[2,6]  4.4092740277891973e-01
    x[2,1]    findWorstP[2,7]  4.4092740277891973e-01
    x[2,1]    findWorstP[2,8]  4.4092740277891973e-01
    x[2,1]    findWorstP[3,2]  -3.9694766395507886e-01
    x[2,1]    findWorstP[4,2]  -1.4252097401268671e-01
    x[2,1]    findWorstP[5,2]  -2.1257543313217830e-01
    x[2,1]    findWorstP[6,2]  -3.5495543791462841e-01
    x[2,1]    findWorstP[7,2]  -5.5983523630582455e-01
    x[2,1]    findWorstP[8,2]  -5.9131893478716710e-02
    x[2,2]    allocateEach[2]  1
    x[2,2]    findWorstP[1,2]  -3.1043771043771046e-01
    x[2,2]    findWorstP[2,1]  3.1242292197648608e-01
    x[2,2]    findWorstP[2,3]  3.1242292197648608e-01
    x[2,2]    findWorstP[2,4]  3.1242292197648608e-01
    x[2,2]    findWorstP[2,5]  3.1242292197648608e-01
    x[2,2]    findWorstP[2,6]  3.1242292197648608e-01
    x[2,2]    findWorstP[2,7]  3.1242292197648608e-01
    x[2,2]    findWorstP[2,8]  3.1242292197648608e-01
    x[2,2]    findWorstP[3,2]  -3.8708516305521556e-01
    x[2,2]    findWorstP[4,2]  -5.5054225496214448e-01
    x[2,2]    findWorstP[5,2]  -4.9542534553241185e-01
    x[2,2]    findWorstP[6,2]  -4.4401259800308246e-01
    x[2,2]    findWorstP[7,2]  -2.2337042925278217e-01
    x[2,2]    findWorstP[8,2]  -0.626336758230237
    x[3,1]    allocateEach[1]  1
    x[3,1]    findWorstP[1,3]  -5.2121212121212124e-01
    x[3,1]    findWorstP[2,3]  -4.4092740277891973e-01
    x[3,1]    findWorstP[3,1]  3.9694766395507886e-01
    x[3,1]    findWorstP[3,2]  3.9694766395507886e-01
    x[3,1]    findWorstP[3,4]  3.9694766395507886e-01
    x[3,1]    findWorstP[3,5]  3.9694766395507886e-01
    x[3,1]    findWorstP[3,6]  3.9694766395507886e-01
    x[3,1]    findWorstP[3,7]  3.9694766395507886e-01
    x[3,1]    findWorstP[3,8]  3.9694766395507886e-01
    x[3,1]    findWorstP[4,3]  -1.4252097401268671e-01
    x[3,1]    findWorstP[5,3]  -2.1257543313217830e-01
    x[3,1]    findWorstP[6,3]  -3.5495543791462841e-01
    x[3,1]    findWorstP[7,3]  -5.5983523630582455e-01
    x[3,1]    findWorstP[8,3]  -5.9131893478716710e-02
    x[3,2]    allocateEach[2]  1
    x[3,2]    findWorstP[1,3]  -3.1043771043771046e-01
    x[3,2]    findWorstP[2,3]  -3.1242292197648608e-01
    x[3,2]    findWorstP[3,1]  3.8708516305521556e-01
    x[3,2]    findWorstP[3,2]  3.8708516305521556e-01
    x[3,2]    findWorstP[3,4]  3.8708516305521556e-01
    x[3,2]    findWorstP[3,5]  3.8708516305521556e-01
    x[3,2]    findWorstP[3,6]  3.8708516305521556e-01
    x[3,2]    findWorstP[3,7]  3.8708516305521556e-01
    x[3,2]    findWorstP[3,8]  3.8708516305521556e-01
    x[3,2]    findWorstP[4,3]  -5.5054225496214448e-01
    x[3,2]    findWorstP[5,3]  -4.9542534553241185e-01
    x[3,2]    findWorstP[6,3]  -4.4401259800308246e-01
    x[3,2]    findWorstP[7,3]  -2.2337042925278217e-01
    x[3,2]    findWorstP[8,3]  -0.626336758230237
    x[4,1]    allocateEach[1]  1
    x[4,1]    findWorstP[1,4]  -5.2121212121212124e-01
    x[4,1]    findWorstP[2,4]  -4.4092740277891973e-01
    x[4,1]    findWorstP[3,4]  -3.9694766395507886e-01
    x[4,1]    findWorstP[4,1]  1.4252097401268671e-01
    x[4,1]    findWorstP[4,2]  1.4252097401268671e-01
    x[4,1]    findWorstP[4,3]  1.4252097401268671e-01
    x[4,1]    findWorstP[4,5]  1.4252097401268671e-01
    x[4,1]    findWorstP[4,6]  1.4252097401268671e-01
    x[4,1]    findWorstP[4,7]  1.4252097401268671e-01
    x[4,1]    findWorstP[4,8]  1.4252097401268671e-01
    x[4,1]    findWorstP[5,4]  -2.1257543313217830e-01
    x[4,1]    findWorstP[6,4]  -3.5495543791462841e-01
    x[4,1]    findWorstP[7,4]  -5.5983523630582455e-01
    x[4,1]    findWorstP[8,4]  -5.9131893478716710e-02
    x[4,2]    allocateEach[2]  1
    x[4,2]    findWorstP[1,4]  -3.1043771043771046e-01
    x[4,2]    findWorstP[2,4]  -3.1242292197648608e-01
    x[4,2]    findWorstP[3,4]  -3.8708516305521556e-01
    x[4,2]    findWorstP[4,1]  5.5054225496214448e-01
    x[4,2]    findWorstP[4,2]  5.5054225496214448e-01
    x[4,2]    findWorstP[4,3]  5.5054225496214448e-01
    x[4,2]    findWorstP[4,5]  5.5054225496214448e-01
    x[4,2]    findWorstP[4,6]  5.5054225496214448e-01
    x[4,2]    findWorstP[4,7]  5.5054225496214448e-01
    x[4,2]    findWorstP[4,8]  5.5054225496214448e-01
    x[4,2]    findWorstP[5,4]  -4.9542534553241185e-01
    x[4,2]    findWorstP[6,4]  -4.4401259800308246e-01
    x[4,2]    findWorstP[7,4]  -2.2337042925278217e-01
    x[4,2]    findWorstP[8,4]  -0.626336758230237
    x[5,1]    allocateEach[1]  1
    x[5,1]    findWorstP[1,5]  -5.2121212121212124e-01
    x[5,1]    findWorstP[2,5]  -4.4092740277891973e-01
    x[5,1]    findWorstP[3,5]  -3.9694766395507886e-01
    x[5,1]    findWorstP[4,5]  -1.4252097401268671e-01
    x[5,1]    findWorstP[5,1]  2.1257543313217830e-01
    x[5,1]    findWorstP[5,2]  2.1257543313217830e-01
    x[5,1]    findWorstP[5,3]  2.1257543313217830e-01
    x[5,1]    findWorstP[5,4]  2.1257543313217830e-01
    x[5,1]    findWorstP[5,6]  2.1257543313217830e-01
    x[5,1]    findWorstP[5,7]  2.1257543313217830e-01
    x[5,1]    findWorstP[5,8]  2.1257543313217830e-01
    x[5,1]    findWorstP[6,5]  -3.5495543791462841e-01
    x[5,1]    findWorstP[7,5]  -5.5983523630582455e-01
    x[5,1]    findWorstP[8,5]  -5.9131893478716710e-02
    x[5,2]    allocateEach[2]  1
    x[5,2]    findWorstP[1,5]  -3.1043771043771046e-01
    x[5,2]    findWorstP[2,5]  -3.1242292197648608e-01
    x[5,2]    findWorstP[3,5]  -3.8708516305521556e-01
    x[5,2]    findWorstP[4,5]  -5.5054225496214448e-01
    x[5,2]    findWorstP[5,1]  4.9542534553241185e-01
    x[5,2]    findWorstP[5,2]  4.9542534553241185e-01
    x[5,2]    findWorstP[5,3]  4.9542534553241185e-01
    x[5,2]    findWorstP[5,4]  4.9542534553241185e-01
    x[5,2]    findWorstP[5,6]  4.9542534553241185e-01
    x[5,2]    findWorstP[5,7]  4.9542534553241185e-01
    x[5,2]    findWorstP[5,8]  4.9542534553241185e-01
    x[5,2]    findWorstP[6,5]  -4.4401259800308246e-01
    x[5,2]    findWorstP[7,5]  -2.2337042925278217e-01
    x[5,2]    findWorstP[8,5]  -0.626336758230237
    x[6,1]    allocateEach[1]  1
    x[6,1]    findWorstP[1,6]  -5.2121212121212124e-01
    x[6,1]    findWorstP[2,6]  -4.4092740277891973e-01
    x[6,1]    findWorstP[3,6]  -3.9694766395507886e-01
    x[6,1]    findWorstP[4,6]  -1.4252097401268671e-01
    x[6,1]    findWorstP[5,6]  -2.1257543313217830e-01
    x[6,1]    findWorstP[6,1]  3.5495543791462841e-01
    x[6,1]    findWorstP[6,2]  3.5495543791462841e-01
    x[6,1]    findWorstP[6,3]  3.5495543791462841e-01
    x[6,1]    findWorstP[6,4]  3.5495543791462841e-01
    x[6,1]    findWorstP[6,5]  3.5495543791462841e-01
    x[6,1]    findWorstP[6,7]  3.5495543791462841e-01
    x[6,1]    findWorstP[6,8]  3.5495543791462841e-01
    x[6,1]    findWorstP[7,6]  -5.5983523630582455e-01
    x[6,1]    findWorstP[8,6]  -5.9131893478716710e-02
    x[6,2]    allocateEach[2]  1
    x[6,2]    findWorstP[1,6]  -3.1043771043771046e-01
    x[6,2]    findWorstP[2,6]  -3.1242292197648608e-01
    x[6,2]    findWorstP[3,6]  -3.8708516305521556e-01
    x[6,2]    findWorstP[4,6]  -5.5054225496214448e-01
    x[6,2]    findWorstP[5,6]  -4.9542534553241185e-01
    x[6,2]    findWorstP[6,1]  4.4401259800308246e-01
    x[6,2]    findWorstP[6,2]  4.4401259800308246e-01
    x[6,2]    findWorstP[6,3]  4.4401259800308246e-01
    x[6,2]    findWorstP[6,4]  4.4401259800308246e-01
    x[6,2]    findWorstP[6,5]  4.4401259800308246e-01
    x[6,2]    findWorstP[6,7]  4.4401259800308246e-01
    x[6,2]    findWorstP[6,8]  4.4401259800308246e-01
    x[6,2]    findWorstP[7,6]  -2.2337042925278217e-01
    x[6,2]    findWorstP[8,6]  -0.626336758230237
    x[7,1]    allocateEach[1]  1
    x[7,1]    findWorstP[1,7]  -5.2121212121212124e-01
    x[7,1]    findWorstP[2,7]  -4.4092740277891973e-01
    x[7,1]    findWorstP[3,7]  -3.9694766395507886e-01
    x[7,1]    findWorstP[4,7]  -1.4252097401268671e-01
    x[7,1]    findWorstP[5,7]  -2.1257543313217830e-01
    x[7,1]    findWorstP[6,7]  -3.5495543791462841e-01
    x[7,1]    findWorstP[7,1]  5.5983523630582455e-01
    x[7,1]    findWorstP[7,2]  5.5983523630582455e-01
    x[7,1]    findWorstP[7,3]  5.5983523630582455e-01
    x[7,1]    findWorstP[7,4]  5.5983523630582455e-01
    x[7,1]    findWorstP[7,5]  5.5983523630582455e-01
    x[7,1]    findWorstP[7,6]  5.5983523630582455e-01
    x[7,1]    findWorstP[7,8]  5.5983523630582455e-01
    x[7,1]    findWorstP[8,7]  -5.9131893478716710e-02
    x[7,2]    allocateEach[2]  1
    x[7,2]    findWorstP[1,7]  -3.1043771043771046e-01
    x[7,2]    findWorstP[2,7]  -3.1242292197648608e-01
    x[7,2]    findWorstP[3,7]  -3.8708516305521556e-01
    x[7,2]    findWorstP[4,7]  -5.5054225496214448e-01
    x[7,2]    findWorstP[5,7]  -4.9542534553241185e-01
    x[7,2]    findWorstP[6,7]  -4.4401259800308246e-01
    x[7,2]    findWorstP[7,1]  2.2337042925278217e-01
    x[7,2]    findWorstP[7,2]  2.2337042925278217e-01
    x[7,2]    findWorstP[7,3]  2.2337042925278217e-01
    x[7,2]    findWorstP[7,4]  2.2337042925278217e-01
    x[7,2]    findWorstP[7,5]  2.2337042925278217e-01
    x[7,2]    findWorstP[7,6]  2.2337042925278217e-01
    x[7,2]    findWorstP[7,8]  2.2337042925278217e-01
    x[7,2]    findWorstP[8,7]  -0.626336758230237
    x[8,1]    allocateEach[1]  1
    x[8,1]    findWorstP[1,8]  -5.2121212121212124e-01
    x[8,1]    findWorstP[2,8]  -4.4092740277891973e-01
    x[8,1]    findWorstP[3,8]  -3.9694766395507886e-01
    x[8,1]    findWorstP[4,8]  -1.4252097401268671e-01
    x[8,1]    findWorstP[5,8]  -2.1257543313217830e-01
    x[8,1]    findWorstP[6,8]  -3.5495543791462841e-01
    x[8,1]    findWorstP[7,8]  -5.5983523630582455e-01
    x[8,1]    findWorstP[8,1]  5.9131893478716710e-02
    x[8,1]    findWorstP[8,2]  5.9131893478716710e-02
    x[8,1]    findWorstP[8,3]  5.9131893478716710e-02
    x[8,1]    findWorstP[8,4]  5.9131893478716710e-02
    x[8,1]    findWorstP[8,5]  5.9131893478716710e-02
    x[8,1]    findWorstP[8,6]  5.9131893478716710e-02
    x[8,1]    findWorstP[8,7]  5.9131893478716710e-02
    x[8,2]    allocateEach[2]  1
    x[8,2]    findWorstP[1,8]  -3.1043771043771046e-01
    x[8,2]    findWorstP[2,8]  -3.1242292197648608e-01
    x[8,2]    findWorstP[3,8]  -3.8708516305521556e-01
    x[8,2]    findWorstP[4,8]  -5.5054225496214448e-01
    x[8,2]    findWorstP[5,8]  -4.9542534553241185e-01
    x[8,2]    findWorstP[6,8]  -4.4401259800308246e-01
    x[8,2]    findWorstP[7,8]  -2.2337042925278217e-01
    x[8,2]    findWorstP[8,1]  0.626336758230237
    x[8,2]    findWorstP[8,2]  0.626336758230237
    x[8,2]    findWorstP[8,3]  0.626336758230237
    x[8,2]    findWorstP[8,4]  0.626336758230237
    x[8,2]    findWorstP[8,5]  0.626336758230237
    x[8,2]    findWorstP[8,6]  0.626336758230237
    x[8,2]    findWorstP[8,7]  0.626336758230237
    MARKER    'MARKER'                 'INTEND'
RHS
    RHS1      allocateEach[1]  1
    RHS1      allocateEach[2]  1
    RHS1      allocateAllCash  1
BOUNDS
 UP BND1      z         1
 MI BND1      cashProportion[1]
 UP BND1      cashProportion[1]  1
 MI BND1      cashProportion[2]
 UP BND1      cashProportion[2]  1
 MI BND1      cashProportion[3]
 UP BND1      cashProportion[3]  1
 MI BND1      cashProportion[4]
 UP BND1      cashProportion[4]  1
 MI BND1      cashProportion[5]
 UP BND1      cashProportion[5]  1
 MI BND1      cashProportion[6]
 UP BND1      cashProportion[6]  1
 MI BND1      cashProportion[7]
 UP BND1      cashProportion[7]  1
 MI BND1      cashProportion[8]
 UP BND1      cashProportion[8]  1
 BV BND1      x[1,1]  
 BV BND1      x[1,2]  
 BV BND1      x[2,1]  
 BV BND1      x[2,2]  
 BV BND1      x[3,1]  
 BV BND1      x[3,2]  
 BV BND1      x[4,1]  
 BV BND1      x[4,2]  
 BV BND1      x[5,1]  
 BV BND1      x[5,2]  
 BV BND1      x[6,1]  
 BV BND1      x[6,2]  
 BV BND1      x[7,1]  
 BV BND1      x[7,2]  
 BV BND1      x[8,1]  
 BV BND1      x[8,2]  
ENDATA
